/*********************************************
 * OPL 12.9.0.0 Data
 * Author: ccs
 * Creation Date: 10 de jun de 2019 at 19:24:22
 *********************************************/
Sources = 3;
Destination = 3;

// int Demand[Destination]= ...;
// int Output[Sources]= ... ;

Shipcost = [
			 [3, 1, 9999], 
             [4, 2, 4],  
             [9999, 3, 3]
          ];   
 